SDVRP instances/custom_instances/p01_15_splitx10_0.vrp
NAME:p01_15_splitx10_
BEST_KNOWN: 0
COMMENT: 0
DIMENSION: 245
CAPACITY: 1600
EDGE_WEIGHT_FORMAT: FUNCTION
EDGE_WEIGHT_TYPE: EXACT_2D
NODE_COORD_SECTION
1 0.00000 0.00000
2 4 2
3 4 2
4 4 2
5 4 2
6 4 2
7 4 2
8 31 -37
9 31 -37
10 31 -37
11 31 -37
12 31 -37
13 31 -37
14 31 -37
15 33 -14
16 33 -14
17 33 -14
18 44 15
19 44 15
20 -17 -35
21 -17 -35
22 -17 -35
23 -17 -35
24 -17 -35
25 17 36
26 17 36
27 17 36
28 17 36
29 17 36
30 -30 -13
31 -30 -13
32 -30 -13
33 -30 -13
34 1 -50
35 1 -50
36 1 -50
37 1 -50
38 1 -50
39 1 -50
40 -46 -24
41 -46 -24
42 -46 -24
43 -46 -24
44 19 -48
45 19 -48
46 19 -48
47 19 -48
48 19 -48
49 -39 -2
50 -39 -2
51 -39 -2
52 -39 -2
53 -39 -2
54 7 11
55 7 11
56 7 11
57 7 11
58 7 11
59 7 11
60 7 11
61 -16 28
62 21 -8
63 21 -8
64 21 -8
65 21 -8
66 13 -27
67 13 -27
68 13 -27
69 -9 26
70 -9 26
71 -9 26
72 -9 26
73 -9 26
74 47 -49
75 47 -49
76 47 -49
77 47 -49
78 47 -49
79 47 -49
80 47 -49
81 -20 46
82 -20 46
83 14 21
84 14 21
85 14 21
86 14 21
87 -19 -22
88 -19 -22
89 16 -45
90 16 -45
91 16 -45
92 16 -45
93 39 2
94 39 2
95 39 2
96 39 2
97 39 2
98 -2 -18
99 -2 -18
100 -2 -18
101 -2 -18
102 -2 -18
103 -2 -18
104 -4 -6
105 -4 -6
106 -4 -6
107 0 -7
108 0 -7
109 0 -7
110 0 -7
111 0 -7
112 0 -7
113 0 -7
114 -47 33
115 -47 33
116 -47 33
117 -47 33
118 -47 33
119 -47 33
120 31 -7
121 31 -7
122 31 -7
123 31 -7
124 31 -7
125 31 -7
126 31 -7
127 -10 -49
128 -10 -49
129 -10 -49
130 -10 -49
131 -10 -49
132 -10 -49
133 -10 -49
134 15 -31
135 15 -31
136 15 -31
137 15 -31
138 -17 0
139 -17 0
140 -17 0
141 -17 0
142 -17 0
143 -17 0
144 -15 19
145 -15 19
146 14 -5
147 14 -5
148 14 -5
149 14 -5
150 14 -5
151 14 -5
152 -15 -15
153 -15 -15
154 -15 -15
155 -15 -15
156 -15 -15
157 -16 -38
158 -16 -38
159 -16 -38
160 -16 -38
161 -16 -38
162 -16 -38
163 -16 -38
164 22 -4
165 22 -4
166 22 -4
167 4 -3
168 4 -3
169 4 -3
170 4 -3
171 4 -3
172 14 -46
173 14 -46
174 14 -46
175 -8 -23
176 -8 -23
177 -8 -23
178 -8 -23
179 -8 -23
180 -8 -23
181 -8 -23
182 -12 6
183 -12 6
184 -12 6
185 -12 6
186 -12 6
187 26 -38
188 26 -38
189 26 -38
190 26 -38
191 26 -38
192 4 -21
193 4 -21
194 4 -21
195 4 -21
196 4 -21
197 4 -21
198 4 -21
199 12 33
200 12 33
201 12 33
202 12 33
203 12 33
204 12 33
205 12 33
206 -26 -2
207 -26 -2
208 -26 -2
209 -26 -2
210 -26 -2
211 -26 -2
212 -49 28
213 -49 28
214 -49 28
215 -49 28
216 -11 15
217 -11 15
218 -11 15
219 -11 15
220 -11 15
221 -11 15
222 -38 -2
223 -38 -2
224 -38 -2
225 -38 -2
226 -38 -2
227 -38 -2
228 -35 -13
229 -35 -13
230 -35 -13
231 -35 -13
232 -26 -22
233 -26 -22
234 -26 -22
235 -26 -22
236 -26 -22
237 13 -49
238 13 -49
239 13 -49
240 13 -49
241 13 -49
242 24 24
243 24 24
244 24 24
245 24 24
DEMAND_SECTION
1 0
2 320
3 160
4 16
5 16
6 16
7 2
8 160
9 80
10 16
11 16
12 16
13 16
14 6
15 320
16 320
17 160
18 320
19 80
20 320
21 160
22 80
23 16
24 14
25 320
26 160
27 80
28 16
29 4
30 160
31 80
32 16
33 4
34 320
35 320
36 80
37 16
38 16
39 8
40 320
41 80
42 16
43 4
44 320
45 16
46 16
47 16
48 2
49 320
50 320
51 80
52 16
53 14
54 320
55 160
56 16
57 16
58 16
59 16
60 6
61 320
62 320
63 16
64 16
65 8
66 320
67 16
68 4
69 160
70 16
71 16
72 16
73 12
74 320
75 320
76 16
77 16
78 16
79 16
80 6
81 320
82 80
83 160
84 80
85 16
86 4
87 320
88 80
89 160
90 80
91 16
92 14
93 320
94 160
95 16
96 16
97 8
98 320
99 80
100 16
101 16
102 16
103 12
104 320
105 320
106 10
107 320
108 320
109 16
110 16
111 16
112 16
113 6
114 320
115 160
116 80
117 16
118 16
119 8
120 320
121 320
122 16
123 16
124 16
125 16
126 6
127 320
128 320
129 80
130 16
131 16
132 16
133 2
134 320
135 160
136 16
137 4
138 320
139 320
140 80
141 16
142 16
143 8
144 320
145 160
146 320
147 160
148 16
149 16
150 16
151 2
152 320
153 320
154 80
155 16
156 14
157 320
158 320
159 80
160 16
161 16
162 16
163 2
164 320
165 16
166 4
167 320
168 16
169 16
170 16
171 2
172 320
173 320
174 10
175 320
176 80
177 16
178 16
179 16
180 16
181 6
182 320
183 80
184 16
185 16
186 8
187 320
188 160
189 16
190 16
191 8
192 320
193 320
194 80
195 16
196 16
197 16
198 12
199 320
200 320
201 80
202 16
203 16
204 16
205 12
206 320
207 320
208 16
209 16
210 16
211 2
212 320
213 160
214 16
215 4
216 320
217 320
218 16
219 16
220 16
221 2
222 160
223 80
224 16
225 16
226 16
227 2
228 160
229 80
230 16
231 14
232 320
233 320
234 16
235 16
236 8
237 160
238 80
239 16
240 16
241 8
242 320
243 160
244 16
245 4
DEPOT_SECTION
1
-1
EOF