SDVRP instances/custom_instances/p01_15_splitx10_0.sol
244 -1 -3 6 2 4 5 -8 7 12 10 13 9 11 78 73 74 76 75 77 79 190 188 187 186 189 -21 22 19 23 20 161 162 159 156 157 160 158 175 179 177 176 178 180 -31 32 30 29 229 230 228 227 52 50 48 49 51 223 224 226 221 222 225 -36 34 37 38 35 33 131 129 130 126 128 127 132 102 100 -42 41 39 40 231 232 233 235 234 86 87 -56 59 54 58 57 55 53 68 72 70 69 71 60 143 144 -63 62 14 15 16 123 125 120 121 119 122 124 -66 67 65 133 134 136 135 191 195 194 192 193 -80 81 113 117 116 118 114 115 213 212 211 214 -84 82 26 24 25 27 28 201 204 203 198 202 200 199 -85 83 243 242 244 241 17 18 94 92 95 96 93 -90 89 91 88 46 43 44 47 45 240 236 238 239 237 171 173 172 197 196 -101 98 99 97 174 151 152 155 154 153 -104 105 103 111 107 109 106 110 108 112 -138 142 140 141 137 139 208 209 206 207 205 210 -165 164 163 61 64 145 146 150 149 147 148 166 168 169 167 170 -181 184 185 182 183 216 215 220 217 219 218 0 





OBJ=
1430.500
BEST_KNOWN=
0.000